networks/zoo_117_685/zoo_117_685-lower.txt
Number of groups: 53
Flow 1: {1 34 0} {34 15 0} {54 6 0} {6 65 0} 
Flow 1: {15 54 0} Flow 2: {45 11 0} {11 70 0} 
Flow 2: {15 45 0} Flow 3: {15 74 0} 
Flow 4: {11 22 0} {22 81 0} 
Flow 5: {36 26 0} {26 85 0} 
Flow 5: {34 36 0} Flow 6: {15 29 0} {29 88 0} 
Flow 7: {34 33 0} {33 92 0} 
Flow 8: {36 95 0} 
Flow 9: {36 39 0} {39 98 0} 
Flow 10: {54 43 0} {43 102 0} 
Flow 11: {15 48 0} {48 107 0} 
Flow 12: {34 51 0} {51 110 0} 
Flow 13: {54 113 0} 
Flow 14: {34 55 0} {55 114 0} 
Flow 15: {54 58 0} {58 117 0} 
Flow 16: {2 5 0} {5 54 0} Flow 17: {5 11 0} Flow 18: {54 15 0} Flow 20: {54 36 0} Flow 23: {15 34 0} Flow 25: {36 55 0} Flow 27: {3 34 0} Flow 35: {4 36 0} Flow 36: {36 54 0} Flow 37: {34 1 0} {1 60 0} 
Flow 38: {5 2 0} {2 61 0} 
Flow 40: {23 9 0} {9 68 0} 
Flow 40: {22 23 0} Flow 43: {36 16 0} {16 75 0} 
Flow 46: {15 27 0} {27 86 0} 
Flow 48: {15 33 0} Flow 50: {36 37 0} {37 96 0} 
Flow 52: {11 43 0} Flow 54: {36 50 0} {50 109 0} 
Flow 58: {36 57 0} {57 116 0} 
Flow 60: {6 54 0} Flow 61: {54 5 0} Flow 62: {36 4 0} {4 63 0} 
Flow 63: {54 11 0} Flow 64: {57 10 0} {10 69 0} 
Flow 68: {33 18 0} {18 77 0} 
Flow 69: {22 21 0} {21 80 0} 
Flow 75: {34 93 0} 
Flow 79: {54 19 0} {19 40 0} {40 99 0} 
Flow 80: {19 42 0} {42 101 0} 
Flow 82: {11 45 0} {45 104 0} 
Flow 86: {39 53 0} {53 112 0} 
Flow 89: {15 56 0} {56 115 0} 
Flow 92: {8 5 0} Flow 94: {9 23 0} {23 22 0} {22 11 0} {11 54 0} Flow 96: {45 15 0} Flow 103: {10 57 0} {57 36 0} Flow 105: {36 34 0} Flow 110: {36 38 0} {38 58 0} Flow 112: {11 5 0} Flow 130: {22 19 0} Flow 143: {12 11 0} Flow 146: {13 21 0} {21 22 0} Flow 157: {34 16 0} Flow 174: {16 34 0} Flow 175: {16 36 0} Flow 195: {17 33 0} {33 15 0} Flow 198: {33 34 0} Flow 201: {18 33 0} Flow 205: {18 55 0} {55 36 0} Flow 213: {19 54 0} Flow 215: {19 22 0} Flow 225: {19 48 0} Flow 231: {20 22 0} Flow 263: {24 22 0} Flow 269: {25 36 0} Flow 283: {27 15 0} Flow 294: {29 15 0} Flow 306: {29 58 0} {58 39 0} Flow 315: {30 29 0} Flow 318: {32 31 0} {31 33 0} Flow 329: {55 37 0} Flow 341: {34 3 0} {3 62 0} 
Flow 343: {5 64 0} 
Flow 345: {54 7 0} {7 66 0} 
Flow 346: {5 8 0} {8 67 0} 
Flow 350: {21 13 0} {13 72 0} 
Flow 351: {29 14 0} {14 73 0} 
Flow 354: {33 17 0} {17 76 0} 
Flow 356: {22 20 0} {20 79 0} 
Flow 359: {22 24 0} {24 83 0} 
Flow 360: {36 25 0} {25 84 0} 
Flow 363: {54 28 0} {28 87 0} 
Flow 365: {29 30 0} {30 89 0} 
Flow 366: {33 31 0} {31 32 0} {32 91 0} 
Flow 368: {33 35 0} {35 94 0} 
Flow 371: {38 97 0} 
Flow 373: {48 19 0} Flow 374: {48 41 0} {41 100 0} 
Flow 378: {48 46 0} {46 105 0} 
Flow 379: {48 47 0} {47 106 0} 
Flow 381: {48 49 0} {49 108 0} 
Flow 384: {16 52 0} {52 111 0} 
Flow 391: {35 36 0} Flow 392: {35 33 0} Flow 410: {55 18 0} Flow 424: {36 35 0} Flow 446: {37 36 0} Flow 459: {37 55 0} Flow 461: {38 36 0} Flow 467: {39 36 0} Flow 473: {40 19 0} Flow 481: {41 48 0} {48 15 0} Flow 485: {42 19 0} Flow 496: {43 11 0} Flow 497: {43 54 0} Flow 513: {44 7 0} {7 54 0} Flow 517: {46 48 0} Flow 519: {47 48 0} Flow 536: {49 48 0} Flow 538: {50 36 0} Flow 542: {51 34 0} Flow 570: {52 16 0} Flow 573: {53 39 0} Flow 629: {55 34 0} Flow 650: {56 15 0} Flow 660: {58 29 0} Flow 661: {58 54 0} Flow 664: {58 38 0} Flow 684: {59 45 0} Time taken running everything: 1 seconds
