networks/zoo_117_685/zoo_117_685-lower.sol
<?xml version = "1.0" encoding="UTF-8" standalone="yes"?>
<CPLEXSolution version="1.2">
 <header
   problemName="networks/zoo_117_685/zoo_117_685-lower.lp"
   solutionName="incumbent"
   solutionIndex="-1"
   objectiveValue="53"
   solutionTypeValue="3"
   solutionTypeString="primal"
   solutionStatusValue="101"
   solutionStatusString="integer optimal solution"
   solutionMethodString="mip"
   primalFeasible="1"
   dualFeasible="1"
   MIPNodes="0"
   MIPIterations="0"
   writeLevel="3"/>
 <quality
   epInt="1.0000000000000001e-05"
   epRHS="9.9999999999999995e-07"
   maxIntInfeas="0"
   maxPrimalInfeas="0"
   maxX="1"
   maxSlack="1"/>
 <variables>
  <variable name="Y(1,6)" index="5" value="1"/>
  <variable name="Y(2,11)" index="122" value="1"/>
  <variable name="Y(3,15)" index="238" value="1"/>
  <variable name="Y(4,22)" index="357" value="1"/>
  <variable name="Y(5,26)" index="473" value="1"/>
  <variable name="Y(6,29)" index="588" value="1"/>
  <variable name="Y(7,33)" index="704" value="1"/>
  <variable name="Y(8,36)" index="819" value="1"/>
  <variable name="Y(9,39)" index="934" value="1"/>
  <variable name="Y(10,43)" index="1050" value="1"/>
  <variable name="Y(11,48)" index="1167" value="1"/>
  <variable name="Y(12,51)" index="1282" value="1"/>
  <variable name="Y(13,54)" index="1397" value="1"/>
  <variable name="Y(14,55)" index="1510" value="1"/>
  <variable name="Y(15,58)" index="1625" value="1"/>
  <variable name="Y(37,1)" index="4032" value="1"/>
  <variable name="Y(38,2)" index="4145" value="1"/>
  <variable name="Y(40,9)" index="4376" value="1"/>
  <variable name="Y(43,16)" index="4719" value="1"/>
  <variable name="Y(46,27)" index="5066" value="1"/>
  <variable name="Y(50,37)" index="5524" value="1"/>
  <variable name="Y(54,50)" index="5985" value="1"/>
  <variable name="Y(58,57)" index="6440" value="1"/>
  <variable name="Y(62,4)" index="6835" value="1"/>
  <variable name="Y(64,10)" index="7065" value="1"/>
  <variable name="Y(68,18)" index="7521" value="1"/>
  <variable name="Y(69,21)" index="7636" value="1"/>
  <variable name="Y(75,34)" index="8321" value="1"/>
  <variable name="Y(79,40)" index="8775" value="1"/>
  <variable name="Y(80,42)" index="8889" value="1"/>
  <variable name="Y(82,45)" index="9116" value="1"/>
  <variable name="Y(86,53)" index="9572" value="1"/>
  <variable name="Y(89,56)" index="9911" value="1"/>
  <variable name="Y(341,3)" index="38082" value="1"/>
  <variable name="Y(343,5)" index="38308" value="1"/>
  <variable name="Y(345,7)" index="38534" value="1"/>
  <variable name="Y(346,8)" index="38647" value="1"/>
  <variable name="Y(350,13)" index="39100" value="1"/>
  <variable name="Y(351,14)" index="39213" value="1"/>
  <variable name="Y(354,17)" index="39552" value="1"/>
  <variable name="Y(356,20)" index="39779" value="1"/>
  <variable name="Y(359,24)" index="40119" value="1"/>
  <variable name="Y(360,25)" index="40232" value="1"/>
  <variable name="Y(363,28)" index="40571" value="1"/>
  <variable name="Y(365,30)" index="40797" value="1"/>
  <variable name="Y(366,32)" index="40911" value="1"/>
  <variable name="Y(368,35)" index="41138" value="1"/>
  <variable name="Y(371,38)" index="41477" value="1"/>
  <variable name="Y(374,41)" index="41816" value="1"/>
  <variable name="Y(378,46)" index="42269" value="1"/>
  <variable name="Y(379,47)" index="42382" value="1"/>
  <variable name="Y(381,49)" index="42608" value="1"/>
  <variable name="Y(384,52)" index="42947" value="1"/>
  <variable name="X(1,34,1)" index="76720" value="1"/>
  <variable name="X(1,60,37)" index="77441" value="1"/>
  <variable name="X(2,5,16)" index="78105" value="1"/>
  <variable name="X(2,61,38)" index="78812" value="1"/>
  <variable name="X(3,34,27)" index="79486" value="1"/>
  <variable name="X(3,62,341)" index="80485" value="1"/>
  <variable name="X(4,36,35)" index="80864" value="1"/>
  <variable name="X(4,63,62)" index="81576" value="1"/>
  <variable name="X(5,2,38)" index="82237" value="1"/>
  <variable name="X(5,8,346)" index="83230" value="1"/>
  <variable name="X(5,11,17)" index="83586" value="1"/>
  <variable name="X(5,54,16)" index="84270" value="1"/>
  <variable name="X(5,64,343)" index="85282" value="1"/>
  <variable name="X(6,54,60)" index="85684" value="1"/>
  <variable name="X(6,65,1)" index="86310" value="1"/>
  <variable name="X(7,54,513)" index="87507" value="1"/>
  <variable name="X(7,66,345)" index="88024" value="1"/>
  <variable name="X(8,5,92)" index="88456" value="1"/>
  <variable name="X(8,67,346)" index="89395" value="1"/>
  <variable name="X(9,23,94)" index="89828" value="1"/>
  <variable name="X(9,68,40)" index="90459" value="1"/>
  <variable name="X(10,57,103)" index="91207" value="1"/>
  <variable name="X(10,69,64)" index="91853" value="1"/>
  <variable name="X(11,5,112)" index="92586" value="1"/>
  <variable name="X(11,22,4)" index="93163" value="1"/>
  <variable name="X(11,43,52)" index="93896" value="1"/>
  <variable name="X(11,45,82)" index="94611" value="1"/>
  <variable name="X(11,54,94)" index="95308" value="1"/>
  <variable name="X(11,70,2)" index="95901" value="1"/>
  <variable name="X(12,11,143)" index="96727" value="1"/>
  <variable name="X(13,21,146)" index="97415" value="1"/>
  <variable name="X(13,72,350)" index="98304" value="1"/>
  <variable name="X(14,73,351)" index="98990" value="1"/>
  <variable name="X(15,27,46)" index="99370" value="1"/>
  <variable name="X(15,29,6)" index="100015" value="1"/>
  <variable name="X(15,33,48)" index="100742" value="1"/>
  <variable name="X(15,34,23)" index="101402" value="1"/>
  <variable name="X(15,45,2)" index="102066" value="1"/>
  <variable name="X(15,48,11)" index="102760" value="1"/>
  <variable name="X(15,54,1)" index="103435" value="1"/>
  <variable name="X(15,56,89)" index="104208" value="1"/>
  <variable name="X(15,74,3)" index="104807" value="1"/>
  <variable name="X(16,34,174)" index="105663" value="1"/>
  <variable name="X(16,36,175)" index="106349" value="1"/>
  <variable name="X(16,52,384)" index="107243" value="1"/>
  <variable name="X(16,75,43)" index="107587" value="1"/>
  <variable name="X(17,33,195)" index="108424" value="1"/>
  <variable name="X(17,76,354)" index="109268" value="1"/>
  <variable name="X(18,33,201)" index="109800" value="1"/>
  <variable name="X(18,55,205)" index="110489" value="1"/>
  <variable name="X(18,77,68)" index="111037" value="1"/>
  <variable name="X(19,22,215)" index="111869" value="1"/>
  <variable name="X(19,40,79)" index="112418" value="1"/>
  <variable name="X(19,42,80)" index="113104" value="1"/>
  <variable name="X(19,48,225)" index="113934" value="1"/>
  <variable name="X(19,54,213)" index="114607" value="1"/>
  <variable name="X(20,22,231)" index="115310" value="1"/>
  <variable name="X(20,79,356)" index="116120" value="1"/>
  <variable name="X(21,13,350)" index="116799" value="1"/>
  <variable name="X(21,22,146)" index="117280" value="1"/>
  <variable name="X(21,80,69)" index="117888" value="1"/>
  <variable name="X(22,11,94)" index="118598" value="1"/>
  <variable name="X(22,19,130)" index="119319" value="1"/>
  <variable name="X(22,20,356)" index="120230" value="1"/>
  <variable name="X(22,21,69)" index="120628" value="1"/>
  <variable name="X(22,23,40)" index="121284" value="1"/>
  <variable name="X(22,24,359)" index="122288" value="1"/>
  <variable name="X(22,81,4)" index="122618" value="1"/>
  <variable name="X(23,9,40)" index="123339" value="1"/>
  <variable name="X(23,22,94)" index="124078" value="1"/>
  <variable name="X(24,22,263)" index="124932" value="1"/>
  <variable name="X(24,83,359)" index="125713" value="1"/>
  <variable name="X(25,36,269)" index="126308" value="1"/>
  <variable name="X(25,84,360)" index="127084" value="1"/>
  <variable name="X(26,85,5)" index="127414" value="1"/>
  <variable name="X(27,15,283)" index="128377" value="1"/>
  <variable name="X(27,86,46)" index="128825" value="1"/>
  <variable name="X(28,87,363)" index="129827" value="1"/>
  <variable name="X(29,14,351)" index="130500" value="1"/>
  <variable name="X(29,15,294)" index="131128" value="1"/>
  <variable name="X(29,30,365)" index="131884" value="1"/>
  <variable name="X(29,58,306)" index="132510" value="1"/>
  <variable name="X(29,88,6)" index="132895" value="1"/>
  <variable name="X(30,29,315)" index="133889" value="1"/>
  <variable name="X(30,89,365)" index="134624" value="1"/>
  <variable name="X(31,32,366)" index="135310" value="1"/>
  <variable name="X(31,33,318)" index="135947" value="1"/>
  <variable name="X(32,31,318)" index="136632" value="1"/>
  <variable name="X(32,91,366)" index="137365" value="1"/>
  <variable name="X(33,15,195)" index="137879" value="1"/>
  <variable name="X(33,17,354)" index="138723" value="1"/>
  <variable name="X(33,18,68)" index="139122" value="1"/>
  <variable name="X(33,31,366)" index="140105" value="1"/>
  <variable name="X(33,34,198)" index="140622" value="1"/>
  <variable name="X(33,35,368)" index="141477" value="1"/>
  <variable name="X(33,92,7)" index="141801" value="1"/>
  <variable name="X(34,1,37)" index="142516" value="1"/>
  <variable name="X(34,3,341)" index="143505" value="1"/>
  <variable name="X(34,15,1)" index="143850" value="1"/>
  <variable name="X(34,16,157)" index="144691" value="1"/>
  <variable name="X(34,33,7)" index="145226" value="1"/>
  <variable name="X(34,36,5)" index="145909" value="1"/>
  <variable name="X(34,51,12)" index="146601" value="1"/>
  <variable name="X(34,55,14)" index="147288" value="1"/>
  <variable name="X(34,93,75)" index="148034" value="1"/>
  <variable name="X(35,33,392)" index="149036" value="1"/>
  <variable name="X(35,36,391)" index="149720" value="1"/>
  <variable name="X(35,94,368)" index="150382" value="1"/>
  <variable name="X(36,4,62)" index="150761" value="1"/>
  <variable name="X(36,16,43)" index="151427" value="1"/>
  <variable name="X(36,25,360)" index="152429" value="1"/>
  <variable name="X(36,26,5)" index="152759" value="1"/>
  <variable name="X(36,34,105)" index="153544" value="1"/>
  <variable name="X(36,35,424)" index="154548" value="1"/>
  <variable name="X(36,37,50)" index="154859" value="1"/>
  <variable name="X(36,38,110)" index="155604" value="1"/>
  <variable name="X(36,39,9)" index="156188" value="1"/>
  <variable name="X(36,50,54)" index="156918" value="1"/>
  <variable name="X(36,54,36)" index="157585" value="1"/>
  <variable name="X(36,55,25)" index="158259" value="1"/>
  <variable name="X(36,57,58)" index="158977" value="1"/>
  <variable name="X(36,95,8)" index="159612" value="1"/>
  <variable name="X(37,36,446)" index="160735" value="1"/>
  <variable name="X(37,55,459)" index="161433" value="1"/>
  <variable name="X(37,96,50)" index="161709" value="1"/>
  <variable name="X(38,36,461)" index="162805" value="1"/>
  <variable name="X(38,58,110)" index="163139" value="1"/>
  <variable name="X(38,97,371)" index="164085" value="1"/>
  <variable name="X(39,36,467)" index="164866" value="1"/>
  <variable name="X(39,53,86)" index="165170" value="1"/>
  <variable name="X(39,98,9)" index="165778" value="1"/>
  <variable name="X(40,19,473)" index="166927" value="1"/>
  <variable name="X(40,99,79)" index="167218" value="1"/>
  <variable name="X(41,48,481)" index="168305" value="1"/>
  <variable name="X(41,100,374)" index="168883" value="1"/>
  <variable name="X(42,19,485)" index="169679" value="1"/>
  <variable name="X(42,101,80)" index="169959" value="1"/>
  <variable name="X(43,11,496)" index="171060" value="1"/>
  <variable name="X(43,54,497)" index="171746" value="1"/>
  <variable name="X(43,102,10)" index="171944" value="1"/>
  <variable name="X(44,7,513)" index="173132" value="1"/>
  <variable name="X(45,11,2)" index="173306" value="1"/>
  <variable name="X(45,15,96)" index="174085" value="1"/>
  <variable name="X(45,104,82)" index="174756" value="1"/>
  <variable name="X(46,48,517)" index="175876" value="1"/>
  <variable name="X(46,105,378)" index="176422" value="1"/>
  <variable name="X(47,48,519)" index="177248" value="1"/>
  <variable name="X(47,106,379)" index="177793" value="1"/>
  <variable name="X(48,15,481)" index="178580" value="1"/>
  <variable name="X(48,19,373)" index="179157" value="1"/>
  <variable name="X(48,41,374)" index="179843" value="1"/>
  <variable name="X(48,46,378)" index="180532" value="1"/>
  <variable name="X(48,47,379)" index="181218" value="1"/>
  <variable name="X(48,49,381)" index="181905" value="1"/>
  <variable name="X(48,107,11)" index="182220" value="1"/>
  <variable name="X(49,48,536)" index="183430" value="1"/>
  <variable name="X(49,108,381)" index="183960" value="1"/>
  <variable name="X(50,36,538)" index="184802" value="1"/>
  <variable name="X(50,109,54)" index="185003" value="1"/>
  <variable name="X(51,34,542)" index="186176" value="1"/>
  <variable name="X(51,110,12)" index="186331" value="1"/>
  <variable name="X(52,16,570)" index="187574" value="1"/>
  <variable name="X(52,111,384)" index="188073" value="1"/>
  <variable name="X(53,39,573)" index="188947" value="1"/>
  <variable name="X(53,112,86)" index="189145" value="1"/>
  <variable name="X(54,5,61)" index="189805" value="1"/>
  <variable name="X(54,6,1)" index="190430" value="1"/>
  <variable name="X(54,7,345)" index="191459" value="1"/>
  <variable name="X(54,11,63)" index="191862" value="1"/>
  <variable name="X(54,15,18)" index="192502" value="1"/>
  <variable name="X(54,19,79)" index="193248" value="1"/>
  <variable name="X(54,28,363)" index="194217" value="1"/>
  <variable name="X(54,36,20)" index="194559" value="1"/>
  <variable name="X(54,43,10)" index="195234" value="1"/>
  <variable name="X(54,58,15)" index="195924" value="1"/>
  <variable name="X(54,113,13)" index="196607" value="1"/>
  <variable name="X(55,18,410)" index="197689" value="1"/>
  <variable name="X(55,34,629)" index="198593" value="1"/>
  <variable name="X(55,36,205)" index="198854" value="1"/>
  <variable name="X(55,37,329)" index="199663" value="1"/>
  <variable name="X(55,114,14)" index="200033" value="1"/>
  <variable name="X(56,15,650)" index="201354" value="1"/>
  <variable name="X(56,115,89)" index="201478" value="1"/>
  <variable name="X(57,10,64)" index="202138" value="1"/>
  <variable name="X(57,36,103)" index="202862" value="1"/>
  <variable name="X(57,116,58)" index="203502" value="1"/>
  <variable name="X(58,29,660)" index="204789" value="1"/>
  <variable name="X(58,38,664)" index="205478" value="1"/>
  <variable name="X(58,39,306)" index="205805" value="1"/>
  <variable name="X(58,54,661)" index="206845" value="1"/>
  <variable name="X(58,117,15)" index="206884" value="1"/>
  <variable name="X(59,45,684)" index="208238" value="1"/>
 </variables>
</CPLEXSolution>
